
Gurobi 9.1.2 (linux64, gurobi_cl) logging started Fri Jul 30 13:55:43 2021

Using license file /opt/gurobi/gurobi.lic
Set parameter TimeLimit to value 600
Set parameter Heuristics to value 0
Set parameter Cuts to value 2
Set parameter LogFile to value 912-Cuts2-Heuristics0-glass4-2.log
Set parameter Seed to value 2

Gurobi Optimizer version 9.1.2 build v9.1.2rc0 (linux64)
Copyright (c) 2021, Gurobi Optimization, LLC

Read MPS format model from file /nfs/models/mip/glass4.mps.bz2
Reading time = 0.00 seconds
glass4: 396 rows, 322 columns, 1815 nonzeros
Thread count: 4 physical cores, 8 logical processors, using up to 8 threads
Optimize a model with 396 rows, 322 columns and 1815 nonzeros
Model fingerprint: 0x0a9d9037
Variable types: 20 continuous, 302 integer (0 binary)
Coefficient statistics:
  Matrix range     [1e+00, 8e+06]
  Objective range  [1e+00, 1e+06]
  Bounds range     [1e+00, 8e+02]
  RHS range        [1e+00, 8e+06]
Presolve removed 6 rows and 6 columns
Presolve time: 0.00s
Presolved: 390 rows, 316 columns, 1803 nonzeros
Variable types: 19 continuous, 297 integer (297 binary)

Root relaxation: objective 8.000024e+08, 72 iterations, 0.00 seconds

    Nodes    |    Current Node    |     Objective Bounds      |     Work
 Expl Unexpl |  Obj  Depth IntInf | Incumbent    BestBd   Gap | It/Node Time

     0     0 8.0000e+08    0   72          - 8.0000e+08      -     -    0s
     0     0 8.0000e+08    0   72          - 8.0000e+08      -     -    0s
     0     0 8.0000e+08    0   72          - 8.0000e+08      -     -    0s
     0     0 8.0000e+08    0   79          - 8.0000e+08      -     -    0s
     0     0 8.0000e+08    0   79          - 8.0000e+08      -     -    0s
     0     2 8.0000e+08    0   78          - 8.0000e+08      -     -    0s
*  482   669             167    2.900024e+09 8.0000e+08  72.4%   6.8    0s
* 1824  1466              85    2.666691e+09 8.0000e+08  70.0%  12.0    0s
* 1827  1409              85    2.666690e+09 8.0000e+08  70.0%  12.0    0s
* 2004  1419              90    2.633354e+09 8.0000e+08  69.6%  11.8    0s
* 2007  1367              88    2.616688e+09 8.0000e+08  69.4%  11.8    0s
* 2226  1486             108    2.166687e+09 8.0000e+08  63.1%  11.3    0s
* 2393  1490              94    2.100021e+09 8.0000e+08  61.9%  11.2    0s
* 2917  1548             102    2.100020e+09 8.0000e+08  61.9%  12.9    0s
* 2921  1408             103    1.980019e+09 8.0000e+08  59.6%  12.9    0s
* 2922  1368             103    1.980018e+09 8.0000e+08  59.6%  12.9    0s
* 3174  1393              77    1.966684e+09 8.0000e+08  59.3%  13.2    0s
* 4233  2077             124    1.900018e+09 8.0000e+08  57.9%  14.4    0s
* 5535  3099              99    1.900016e+09 8.0001e+08  57.9%  14.9    1s
* 5536  2805              98    1.850016e+09 8.0001e+08  56.8%  14.9    1s
* 6058  3185             118    1.833349e+09 8.0001e+08  56.4%  14.6    1s
* 7623  4056             105    1.816684e+09 8.0001e+08  56.0%  14.6    1s
* 7715  3761              98    1.800005e+09 8.0001e+08  55.6%  14.7    1s
* 7719  3761              99    1.800005e+09 8.0001e+08  55.6%  14.7    1s
*11418  6440              97    1.783350e+09 8.0001e+08  55.1%  14.8    1s
*12249  6838              78    1.750016e+09 8.0001e+08  54.3%  14.6    2s
*16012  9436              66    1.750015e+09 8.0001e+08  54.3%  15.2    2s
*19882 11347              76    1.700016e+09 8.0001e+08  52.9%  15.6    3s
*28198 16814              89    1.700016e+09 8.0001e+08  52.9%  15.7    4s
*28253 16803              49    1.700016e+09 8.0001e+08  52.9%  15.7    4s
*29260 17473              54    1.700014e+09 8.0001e+08  52.9%  15.6    4s
 29758 17812 1.7000e+09   45   50 1.7000e+09 8.0001e+08  52.9%  15.6    5s
*33050 17490              50    1.675017e+09 8.0501e+08  51.9%  15.7    5s
*33065 17430              56    1.670019e+09 8.0501e+08  51.8%  15.7    5s
*33829 17433              75    1.650016e+09 8.0501e+08  51.2%  15.7    5s
*33831 17059              74    1.633349e+09 8.0501e+08  50.7%  15.7    5s
*43902 22358              49    1.633349e+09 8.4922e+08  48.0%  17.5    8s
*43910 22345              45    1.633349e+09 8.4922e+08  48.0%  17.5    8s
 50312 26057 1.2222e+09   50   60 1.6333e+09 8.5001e+08  48.0%  18.2   10s
*54525 27218              84    1.600015e+09 8.6667e+08  45.8%  18.7   11s
*57763 29243              47    1.600015e+09 8.6667e+08  45.8%  19.0   12s
*57764 29219              47    1.600014e+09 8.6667e+08  45.8%  19.0   12s
*64497 29439              60    1.566683e+09 8.7667e+08  44.0%  19.0   13s
 67816 30806 1.4667e+09   41   58 1.5667e+09 9.0000e+08  42.6%  19.7   15s
*73319 33424              55    1.566680e+09 9.0000e+08  42.6%  20.3   17s
*73322 32094              56    1.544458e+09 9.0000e+08  41.7%  20.3   17s
*75518 32724              65    1.533346e+09 9.0000e+08  41.3%  20.6   17s
*80574 34940              62    1.500017e+09 9.0001e+08  40.0%  20.7   19s
*80995 35232              62    1.500016e+09 9.0001e+08  40.0%  20.8   19s
 83380 36112 1.4000e+09   45   92 1.5000e+09 9.0001e+08  40.0%  21.1   20s
*83412 36107              55    1.500016e+09 9.0001e+08  40.0%  21.1   20s
*83798 36085              48    1.500015e+09 9.0001e+08  40.0%  21.1   20s
*85684 36689              50    1.500013e+09 9.0001e+08  40.0%  21.4   21s
*86887 30816              51    1.480016e+09 9.0001e+08  39.2%  21.5   21s
*87747 31063              50    1.480016e+09 9.0001e+08  39.2%  21.6   21s
*89430 31887              50    1.475016e+09 9.0001e+08  39.0%  21.7   22s
 94584 33293 1.4000e+09   42   33 1.4750e+09 9.0001e+08  39.0%  22.4   25s
 106241 36270 1.1466e+09   37   56 1.4750e+09 9.2001e+08  37.6%  23.8   30s
*106881 29419              49    1.366682e+09 9.2051e+08  32.6%  23.9   30s
*108088 19538              42    1.200013e+09 9.4001e+08  21.7%  24.2   30s

Cutting planes:
  Gomory: 101
  Cover: 618
  Implied bound: 112
  Projected implied bound: 9
  Clique: 1
  MIR: 40
  Flow cover: 534
  GUB cover: 1
  Inf proof: 75
  RLT: 87
  Relax-and-lift: 123

Explored 124802 nodes (2962347 simplex iterations) in 34.63 seconds
Thread count was 8 (of 8 available processors)

Solution count 10: 1.20001e+09 1.36668e+09 1.47502e+09 ... 1.50002e+09

Optimal solution found (tolerance 1.00e-04)
Best objective 1.200012600000e+09, best bound 1.199999114908e+09, gap 0.0011%
